NAME : LPS-n14-m113
COMMENT : (Lartu-Peter-Santi Plot, instance 4513 out of 39200. 14 customers.)
TYPE : CVRP
DIMENSION : 14
EDGE_WEIGHT_TYPE : EUC_2D
CAPACITY : 104
NODE_COORD_SECTION
 1 31 1
 2 36 22
 3 19 21
 4 18 89
 5 13 33
 6 24 31
 7 23 65
 8 4 45
 9 60 42
 10 34 89
 11 82 17
 12 40 17
 13 1 89
 14 74 64
DEMAND_SECTION
1 0
2 50
3 43
4 5
5 91
6 13
7 79
8 55
9 28
10 8
11 8
12 59
13 6
14 76
DEPOT_SECTION
 1
 -1
EOF
